(set-option :produce-models true)
(declare-const ___stack0__base_size0 Int)
(declare-const ___stack0__base_size1 Int)
(declare-const ___stack0__base_size2 Int)
(declare-const ___stack0__base_size3 Int)
(declare-const ___stack0__base_stride0 Int)
(declare-const ___stack0__base_stride1 Int)
(declare-const ___stack0__base_stride2 Int)
(declare-const ___stack0__base_stride3 Int)
(declare-const ___stack0__base_storage_offset Int)
(define-fun ge () Bool (>= ___stack0__base_size0 0))
(assert ge)
(define-fun ge_1 () Bool (>= ___stack0__base_size1 0))
(assert ge_1)
(define-fun ge_2 () Bool (>= ___stack0__base_size2 0))
(assert ge_2)
(define-fun ge_3 () Bool (>= ___stack0__base_size3 0))
(assert ge_3)
(define-fun eq () Bool (= ___stack0__base_size0 0))
(define-fun not_ () Bool (not eq))
(assert not_)
(define-fun sub () Int (- ___stack0__base_size0 1))
(define-fun mul () Int (* ___stack0__base_stride0 sub))
(define-fun add () Int (+ 1 mul))
(define-fun eq_1 () Bool (= ___stack0__base_size1 0))
(define-fun not__1 () Bool (not eq_1))
(assert not__1)
(define-fun sub_1 () Int (- ___stack0__base_size1 1))
(define-fun mul_1 () Int (* ___stack0__base_stride1 sub_1))
(define-fun add_1 () Int (+ add mul_1))
(define-fun eq_2 () Bool (= ___stack0__base_size2 0))
(define-fun not__2 () Bool (not eq_2))
(assert not__2)
(define-fun sub_2 () Int (- ___stack0__base_size2 1))
(define-fun mul_2 () Int (* ___stack0__base_stride2 sub_2))
(define-fun add_2 () Int (+ add_1 mul_2))
(define-fun eq_3 () Bool (= ___stack0__base_size3 0))
(define-fun not__3 () Bool (not eq_3))
(assert not__3)
(define-fun sub_3 () Int (- ___stack0__base_size3 1))
(define-fun mul_3 () Int (* ___stack0__base_stride3 sub_3))
(define-fun add_3 () Int (+ add_2 mul_3))
(define-fun mul_4 () Int (* 4 add_3))
(define-fun mul_5 () Int (* ___stack0__base_size0 ___stack0__base_size1))
(define-fun mul_6 () Int (* mul_5 ___stack0__base_size2))
(define-fun mul_7 () Int (* mul_6 ___stack0__base_size3))
(define-fun eq_4 () Bool (= mul_7 0))
(define-fun not__4 () Bool (not eq_4))
(assert not__4)
(define-fun eq_5 () Bool (= ___stack0__base_size3 1))
(define-fun not__5 () Bool (not eq_5))
(assert not__5)
(define-fun eq_6 () Bool (= ___stack0__base_stride3 1))
(assert eq_6)
(define-fun eq_7 () Bool (= ___stack0__base_size2 1))
(define-fun not__6 () Bool (not eq_7))
(assert not__6)
(define-fun eq_8 () Bool (= ___stack0__base_stride2 ___stack0__base_size3))
(assert eq_8)
(define-fun mul_8 () Int (* ___stack0__base_size3 ___stack0__base_size2))
(define-fun eq_9 () Bool (= ___stack0__base_size1 1))
(define-fun not__7 () Bool (not eq_9))
(assert not__7)
(define-fun eq_10 () Bool (= ___stack0__base_stride1 mul_8))
(assert eq_10)
(define-fun mul_9 () Int (* mul_8 ___stack0__base_size1))
(define-fun eq_11 () Bool (= ___stack0__base_size0 1))
(assert eq_11)
(define-fun eq_12 () Bool (= ___stack0__base_stride1 1))
(define-fun not__8 () Bool (not eq_12))
(assert not__8)
(define-fun eq_13 () Bool (= ___stack0__base_stride1 0))
(define-fun not__9 () Bool (not eq_13))
(assert not__9)
(define-fun lt () Bool (< ___stack0__base_stride1 0))
(define-fun not__10 () Bool (not lt))
(assert not__10)
(define-fun gt () Bool (> ___stack0__base_size1 1))
(assert gt)
(define-fun mul_10 () Int (* ___stack0__base_stride1 ___stack0__base_size1))
(define-fun lt_1 () Bool (< ___stack0__base_stride3 mul_10))
(assert lt_1)
(define-fun ge_4 () Bool (>= ___stack0__base_storage_offset 0))
(assert ge_4)
(define-fun add_4 () Int (+ ___stack0__base_storage_offset add_3))
(define-fun mul_11 () Int (* 4 add_4))
(declare-const ___stack0_size0 Int)
(declare-const ___stack0_size1 Int)
(declare-const ___stack0_size2 Int)
(declare-const ___stack0_stride0 Int)
(declare-const ___stack0_stride1 Int)
(declare-const ___stack0_stride2 Int)
(declare-const ___stack0_storage_offset Int)
(define-fun eq_14 () Bool (= ___stack0__base_size0 -1))
(define-fun not__11 () Bool (not eq_14))
(assert not__11)
(define-fun eq_15 () Bool (= ___stack0__base_size1 -1))
(define-fun not__12 () Bool (not eq_15))
(assert not__12)
(define-fun eq_16 () Bool (= ___stack0__base_size2 -1))
(define-fun not__13 () Bool (not eq_16))
(assert not__13)
(define-fun eq_17 () Bool (= ___stack0__base_size3 -1))
(define-fun not__14 () Bool (not eq_17))
(assert not__14)
(define-fun eq_18 () Bool (= mul_7 mul_7))
(assert eq_18)
(define-fun eq_19 () Bool (= ___stack0__base_size0 ___stack0__base_size0))
(assert eq_19)
(define-fun eq_20 () Bool (= ___stack0__base_size1 ___stack0__base_size1))
(assert eq_20)
(define-fun eq_21 () Bool (= ___stack0__base_size2 ___stack0__base_size2))
(assert eq_21)
(define-fun eq_22 () Bool (= ___stack0__base_size3 ___stack0__base_size3))
(assert eq_22)
(define-fun mul_12 () Int (* ___stack0_size0 ___stack0_size1))
(define-fun mul_13 () Int (* mul_12 ___stack0_size2))
(define-fun eq_23 () Bool (= mul_13 0))
(define-fun not__15 () Bool (not eq_23))
(assert not__15)
(define-fun eq_24 () Bool (= ___stack0_size2 1))
(define-fun not__16 () Bool (not eq_24))
(assert not__16)
(define-fun eq_25 () Bool (= ___stack0_stride2 1))
(assert eq_25)
(define-fun eq_26 () Bool (= ___stack0_size1 1))
(define-fun not__17 () Bool (not eq_26))
(assert not__17)
(define-fun eq_27 () Bool (= ___stack0_stride1 ___stack0_size2))
(assert eq_27)
(define-fun mul_14 () Int (* ___stack0_size2 ___stack0_size1))
(define-fun eq_28 () Bool (= ___stack0_size0 1))
(assert eq_28)
(declare-const hidden_states_size0 Int)
(declare-const hidden_states_size1 Int)
(declare-const hidden_states_size2 Int)
(declare-const hidden_states_stride0 Int)
(declare-const hidden_states_stride1 Int)
(declare-const hidden_states_stride2 Int)
(declare-const hidden_states_storage_offset Int)
(define-fun ge_5 () Bool (>= hidden_states_size0 0))
(assert ge_5)
(define-fun ge_6 () Bool (>= hidden_states_size1 0))
(assert ge_6)
(define-fun ge_7 () Bool (>= hidden_states_size2 0))
(assert ge_7)
(define-fun eq_29 () Bool (= hidden_states_size0 0))
(define-fun not__18 () Bool (not eq_29))
(assert not__18)
(define-fun sub_4 () Int (- hidden_states_size0 1))
(define-fun mul_15 () Int (* hidden_states_stride0 sub_4))
(define-fun add_5 () Int (+ 1 mul_15))
(define-fun eq_30 () Bool (= hidden_states_size1 0))
(define-fun not__19 () Bool (not eq_30))
(assert not__19)
(define-fun sub_5 () Int (- hidden_states_size1 1))
(define-fun mul_16 () Int (* hidden_states_stride1 sub_5))
(define-fun add_6 () Int (+ add_5 mul_16))
(define-fun eq_31 () Bool (= hidden_states_size2 0))
(define-fun not__20 () Bool (not eq_31))
(assert not__20)
(define-fun sub_6 () Int (- hidden_states_size2 1))
(define-fun mul_17 () Int (* hidden_states_stride2 sub_6))
(define-fun add_7 () Int (+ add_6 mul_17))
(define-fun mul_18 () Int (* 4 add_7))
(define-fun mul_19 () Int (* hidden_states_size0 hidden_states_size1))
(define-fun mul_20 () Int (* mul_19 hidden_states_size2))
(define-fun eq_32 () Bool (= mul_20 0))
(define-fun not__21 () Bool (not eq_32))
(assert not__21)
(define-fun eq_33 () Bool (= hidden_states_size2 1))
(define-fun not__22 () Bool (not eq_33))
(assert not__22)
(define-fun eq_34 () Bool (= hidden_states_stride2 1))
(assert eq_34)
(define-fun eq_35 () Bool (= hidden_states_size1 1))
(define-fun not__23 () Bool (not eq_35))
(assert not__23)
(define-fun eq_36 () Bool (= hidden_states_stride1 hidden_states_size2))
(assert eq_36)
(define-fun mul_21 () Int (* hidden_states_size2 hidden_states_size1))
(define-fun eq_37 () Bool (= hidden_states_size0 1))
(assert eq_37)
(define-fun eq_38 () Bool (= hidden_states_size0 hidden_states_size0))
(assert eq_38)
(define-fun eq_39 () Bool (= hidden_states_size1 hidden_states_size1))
(assert eq_39)
(define-fun eq_40 () Bool (= hidden_states_size2 hidden_states_size2))
(assert eq_40)
(define-fun eq_41 () Bool (= hidden_states_stride2 0))
(define-fun not__24 () Bool (not eq_41))
(assert not__24)
(define-fun eq_42 () Bool (= hidden_states_stride1 0))
(define-fun not__25 () Bool (not eq_42))
(assert not__25)
(define-fun lt_2 () Bool (< hidden_states_stride2 hidden_states_stride1))
(assert lt_2)
(define-fun eq_43 () Bool (= hidden_states_stride0 0))
(define-fun not__26 () Bool (not eq_43))
(assert not__26)
(define-fun lt_3 () Bool (< hidden_states_stride1 hidden_states_stride0))
(assert lt_3)
(define-fun mul_22 () Int (* mul_21 hidden_states_size0))
(define-fun mul_23 () Int (* mul_21 sub_4))
(define-fun add_8 () Int (+ 1 mul_23))
(define-fun mul_24 () Int (* hidden_states_size2 sub_5))
(define-fun add_9 () Int (+ add_8 mul_24))
(define-fun add_10 () Int (+ add_9 sub_6))
(define-fun mul_25 () Int (* 4 add_10))
(define-fun ge_8 () Bool (>= hidden_states_storage_offset 0))
(assert ge_8)
(define-fun add_11 () Int (+ hidden_states_storage_offset add_7))
(define-fun mul_26 () Int (* 4 add_11))
(define-fun eq_44 () Bool (= mul_12 -1))
(define-fun not__27 () Bool (not eq_44))
(assert not__27)
(define-fun ge_9 () Bool (>= mul_12 0))
(assert ge_9)
(define-fun eq_45 () Bool (= ___stack0_size2 -1))
(define-fun not__28 () Bool (not eq_45))
(assert not__28)
(define-fun ge_10 () Bool (>= ___stack0_size2 0))
(assert ge_10)
(define-fun eq_46 () Bool (= mul_13 mul_13))
(assert eq_46)
(define-fun eq_47 () Bool (= ___stack0_size0 mul_12))
(define-fun not__29 () Bool (not eq_47))
(assert not__29)
(define-fun eq_48 () Bool (= mul_12 ___stack0_size0))
(define-fun not__30 () Bool (not eq_48))
(assert not__30)
(define-fun mod () Int (mod ___stack0_size0 mul_12))
(define-fun eq_49 () Bool (= mod 0))
(define-fun not__31 () Bool (not eq_49))
(assert not__31)
(define-fun mod_1 () Int (mod mul_12 mul_12))
(define-fun eq_50 () Bool (= mod_1 0))
(assert eq_50)
(define-fun eq_51 () Bool (= ___stack0_size0 0))
(define-fun not__32 () Bool (not eq_51))
(assert not__32)
(define-fun eq_52 () Bool (= ___stack0_size1 0))
(define-fun not__33 () Bool (not eq_52))
(assert not__33)
(define-fun mul_27 () Int (* ___stack0_size1 ___stack0_size2))
(define-fun eq_53 () Bool (= mul_27 0))
(define-fun not__34 () Bool (not eq_53))
(assert not__34)
(define-fun eq_54 () Bool (= mul_12 mul_12))
(assert eq_54)
(define-fun eq_55 () Bool (= ___stack0_size2 ___stack0_size2))
(assert eq_55)
(define-fun eq_56 () Bool (= ___stack0_size2 1536))
(assert eq_56)
(define-fun ge_11 () Bool (>= ___stack0_size1 0))
(assert ge_11)
(define-fun mul_28 () Int (* 1536 ___stack0_size1))
(define-fun sub_7 () Int (- ___stack0_size1 1))
(define-fun mul_29 () Int (* 1536 sub_7))
(define-fun add_12 () Int (+ 1 mul_29))
(define-fun add_13 () Int (+ add_12 1535))
(define-fun mul_30 () Int (* 4 add_13))
(define-fun mul_31 () Int (* ___stack0_size1 1536))
(define-fun eq_57 () Bool (= mul_31 0))
(define-fun not__35 () Bool (not eq_57))
(assert not__35)
(define-fun lt_4 () Bool (< ___stack0_size1 0))
(define-fun not__36 () Bool (not lt_4))
(assert not__36)
(define-fun eq_58 () Bool (= ___stack0_size1 ___stack0_size1))
(assert eq_58)
(define-fun lt_5 () Bool (< ___stack0_size1 2))
(define-fun not__37 () Bool (not lt_5))
(assert not__37)
(define-fun eq_59 () Bool (= ___stack0_size0 -1))
(define-fun not__38 () Bool (not eq_59))
(assert not__38)
(define-fun ge_12 () Bool (>= ___stack0_size0 0))
(assert ge_12)
(define-fun eq_60 () Bool (= ___stack0_size1 -1))
(define-fun not__39 () Bool (not eq_60))
(assert not__39)
(define-fun mul_32 () Int (* mul_12 1536))
(define-fun eq_61 () Bool (= mul_31 mul_32))
(assert eq_61)
(define-fun eq_62 () Bool (= ___stack0_size1 ___stack0_size0))
(define-fun not__40 () Bool (not eq_62))
(assert not__40)
(define-fun eq_63 () Bool (= ___stack0_size0 ___stack0_size1))
(define-fun not__41 () Bool (not eq_63))
(assert not__41)
(define-fun mod_2 () Int (mod ___stack0_size1 ___stack0_size0))
(define-fun eq_64 () Bool (= mod_2 0))
(assert eq_64)
(define-fun floordiv () Int (div ___stack0_size1 ___stack0_size0))
(define-fun mul_33 () Int (* 1536 floordiv))
(define-fun mul_34 () Int (* ___stack0_size0 floordiv))
(define-fun mul_35 () Int (* mul_34 1536))
(define-fun eq_65 () Bool (= mul_35 0))
(define-fun not__42 () Bool (not eq_65))
(assert not__42)
(define-fun eq_66 () Bool (= floordiv 1))
(define-fun not__43 () Bool (not eq_66))
(assert not__43)
(define-fun eq_67 () Bool (= ___stack0_size1 floordiv))
(assert eq_67)
(define-fun lt_6 () Bool (< floordiv 0))
(define-fun not__44 () Bool (not lt_6))
(assert not__44)
(define-fun lt_7 () Bool (< ___stack0_size0 0))
(define-fun not__45 () Bool (not lt_7))
(assert not__45)
(define-fun eq_68 () Bool (= hidden_states_size2 1536))
(assert eq_68)
(define-fun eq_69 () Bool (= floordiv hidden_states_size1))
(assert eq_69)
(define-fun lt_8 () Bool (< hidden_states_size0 0))
(define-fun not__46 () Bool (not lt_8))
(assert not__46)
(define-fun eq_70 () Bool (= ___stack0_size0 hidden_states_size0))
(assert eq_70)
(define-fun eq_71 () Bool (= floordiv floordiv))
(assert eq_71)
(define-fun eq_72 () Bool (= hidden_states_size1 floordiv))
(assert eq_72)
(define-fun eq_73 () Bool (= ___stack0_size0 ___stack0_size0))
(assert eq_73)
(define-fun eq_74 () Bool (= mul_33 0))
(define-fun not__47 () Bool (not eq_74))
(assert not__47)
(define-fun gt_1 () Bool (> mul_33 1536))
(assert gt_1)
(define-fun ge_13 () Bool (>= floordiv 0))
(assert ge_13)
(define-fun eq_75 () Bool (= floordiv 0))
(define-fun not__48 () Bool (not eq_75))
(assert not__48)
(define-fun mul_36 () Int (* mul_33 ___stack0_size0))
(define-fun sub_8 () Int (- ___stack0_size0 1))
(define-fun mul_37 () Int (* mul_33 sub_8))
(define-fun add_14 () Int (+ 1 mul_37))
(define-fun sub_9 () Int (- floordiv 1))
(define-fun mul_38 () Int (* 1536 sub_9))
(define-fun add_15 () Int (+ add_14 mul_38))
(define-fun add_16 () Int (+ add_15 1535))
(define-fun mul_39 () Int (* 4 add_16))
(define-fun mul_40 () Int (* floordiv ___stack0_size0))
(define-fun mul_41 () Int (* floordiv sub_8))
(define-fun add_17 () Int (+ 1 mul_41))
(define-fun add_18 () Int (+ add_17 sub_9))
(define-fun mul_42 () Int (* 4 add_18))
(define-fun eq_76 () Bool (= mul_34 0))
(define-fun not__49 () Bool (not eq_76))
(assert not__49)
(define-fun lt_9 () Bool (< floordiv 1))
(define-fun not__50 () Bool (not lt_9))
(assert not__50)
(define-fun gt_2 () Bool (> floordiv 1))
(assert gt_2)
(define-fun eq_77 () Bool (= floordiv -1))
(define-fun not__51 () Bool (not eq_77))
(assert not__51)
(define-fun lt_10 () Bool (< floordiv 2))
(define-fun not__52 () Bool (not lt_10))
(assert not__52)
(define-fun lt_11 () Bool (< ___stack0_size0 2))
(assert lt_11)
(define-fun eq_78 () Bool (= mul_11 0))
(define-fun not__53 () Bool (not eq_78))
(assert not__53)
(define-fun eq_79 () Bool (= mul_26 0))
(define-fun not__54 () Bool (not eq_79))
(assert not__54)
(define-fun eq_80 () Bool (= mul_39 0))
(define-fun not__55 () Bool (not eq_80))
(assert not__55)
(define-fun output0_size0 () Int ___stack0_size0)
(define-fun output0_size1 () Int floordiv)
(define-fun output0_size2 () Int 1536)
(define-fun output0_stride0 () Int mul_33)
(define-fun output0_stride1 () Int 1536)
(define-fun output0_stride2 () Int 1)
(define-fun output0_storage_offset () Int 0)
(check-sat)
(get-model)
